10J3M/DAT/10J3MNTX-4.dat
10 3
23.3004 4.827
24.1285 4.9121
20.2741 4.5027
26.9593 5.1922
31.6086 5.6222
29.2017 5.4039
30.012 5.4783
30.1895 5.4945
24.2624 4.9257
32.4145 5.6934
13.013