10J3M/SOL/10J3MNTX-4.sol
solution status: optimal solution found
objective value:                     65.1497400262604
x#2#3                                               1 	(obj:0)
x#3#1                                0.17679679661467 	(obj:0)
x#3#3                                0.82320320338533 	(obj:0)
x#4#1                                               1 	(obj:0)
x#5#2                                               1 	(obj:0)
x#6#2                               0.716376440820646 	(obj:0)
x#6#3                               0.283623559179354 	(obj:0)
x#7#3                               0.290531668785561 	(obj:0)
x#8#1                               0.962594054782625 	(obj:0)
x#8#3                              0.0374059452173745 	(obj:0)
x#10#1                               0.28873226786566 	(obj:0)
x#10#2                               0.71126773213434 	(obj:0)
z                                    65.1497400262604 	(obj:1)
